# Solution for model GasLib-40
# Objective value = 1.0900210920064028e+01
loadshed[innode_1] 0
loadshed[innode_2] 0
loadshed[innode_3] 0
loadshed[innode_4] 0
loadshed[innode_5] 0
loadshed[innode_6] 0
loadshed[innode_7] 0
loadshed[innode_8] 0
loadshed[source_1] -3.0887198653235881e-01
loadshed[source_2] 8.3755330164941522e-02
loadshed[source_3] 2.9406593695106409e-01
loadshed[sink_1] 0
loadshed[sink_2] 0
loadshed[sink_3] 0
loadshed[sink_4] 0
loadshed[sink_5] 0
loadshed[sink_6] 0
loadshed[sink_7] 0
loadshed[sink_8] 0
loadshed[sink_9] 0
loadshed[sink_10] 0
loadshed[sink_11] 0
loadshed[sink_12] 6.6650971230964751e-01
loadshed[sink_13] 0
loadshed[sink_14] 0
loadshed[sink_15] 0
loadshed[sink_16] 0
loadshed[sink_17] 0
loadshed[sink_18] 0
loadshed[sink_19] 0
loadshed[sink_20] 0
loadshed[sink_21] 0
loadshed[sink_22] 0
loadshed[sink_23] 0
loadshed[sink_24] 0
loadshed[sink_25] 0
loadshed[sink_26] 0
loadshed[sink_27] 0
loadshed[sink_28] 0
loadshed[sink_29] 0
flow[source_1,sink_3] 2.0691993592645241e+02
flow[innode_1,sink_16] 1.6354166666666970e+01
flow[innode_6,sink_13] 2.8778545464788792e+00
flow[sink_13,sink_14] -1.3476312120187789e+01
flow[sink_14,sink_10] -2.9830478786854457e+01
flow[sink_25,sink_26] 1.6874829313327567e+02
flow[sink_26,sink_9] 1.2761162766929927e+02
flow[sink_9,sink_18] 1.1125746100263260e+02
flow[sink_26,sink_4] 2.4782498797309742e+01
flow[sink_4,sink_20] 8.4283321306430743e+00
flow[sink_18,sink_6] 9.4903294335965924e+01
flow[sink_25,innode_8] -1.7421160259311603e+02
flow[sink_6,sink_7] 4.5840794335965711e+01
flow[sink_6,sink_22] 3.2708333333333641e+01
flow[sink_7,sink_24] 3.8162289079935981e+01
flow[sink_22,sink_1] 1.6354166666666970e+01
flow[sink_24,sink_21] 2.1808122413269309e+01
flow[sink_21,sink_12] 5.4539557466026416e+00
flow[sink_7,sink_5] -8.67566141063682
flow[sink_5,sink_17] -2.5029828077303364e+01
flow[sink_17,sink_4] 0
flow[sink_17,sink_8] -4.1383994743970106e+01
flow[sink_3,sink_23] 16.3541666666697
flow[sink_8,sink_20] -5.7738161410636771e+01
flow[sink_25,sink_20] 6.5663995946660322e+01
flow[sink_25,sink_15] -7.9432707699964780e+01
flow[sink_15,sink_29] 0
flow[sink_29,sink_28] 1.6354166666667879e+01
flow[sink_29,sink_2] 1.1214104103329812e+02
flow[sink_2,sink_15] 9.5786874366631451e+01
flow[sink_29,innode_7] -1.4484937436663267e+02
flow[innode_4,sink_19] 9.5247145453521867e+01
flow[sink_19,innode_3] 3.8499440640902705e+01
flow[innode_4,innode_5] 1.6354166666679703e+01
flow[sink_27,innode_5] -1.6354166666679703e+01
flow[sink_27,sink_19] 0
flow[sink_10,sink_11] 3.2708333333333641e+01
flow[sink_10,innode_2] -4.0393538145952057e+01
flow[sink_10,innode_3] -3.8499440640902705e+01
flow[innode_6,sink_25] -2.8778545464788792e+00
flow[sink_11,innode_1] 1.6354166666666970e+01
flow[sink_19,innode_2] 4.0393538145952057e+01
flow[source_3,innode_4] 1.1160131212020157e+02
flow[source_2,innode_7] 1.4484937436663267e+02
flow[sink_3,innode_8] 1.7421160259311603e+02
pressure[innode_1] 7.4867878817174429e+01
pressure[innode_2] 77.154545446568
pressure[innode_3] 7.7069292794857432e+01
pressure[innode_4] 81.01325
pressure[innode_5] 8.1002000741808772e+01
pressure[innode_6] 7.3600388487220741e+01
pressure[innode_7] 81.01325
pressure[innode_8] 80.3215957004785
pressure[source_1] 81.01325
pressure[source_2] 81.01325
pressure[source_3] 81.01325
pressure[sink_1] 45.4167553529316
pressure[sink_2] 74.2984375542503
pressure[sink_3] 80.3215957004785
pressure[sink_4] 5.8564634265160834e+01
pressure[sink_5] 5.0496687861913429e+01
pressure[sink_6] 4.7517832963318973e+01
pressure[sink_7] 4.6888548125002018e+01
pressure[sink_8] 5.3922754767543296e+01
pressure[sink_9] 5.4077660029668742e+01
pressure[sink_10] 7.5019580124777974e+01
pressure[sink_11] 7.4867878817174429e+01
pressure[sink_12] 1.0132500000000002e+00
pressure[sink_13] 7.3584523356040179e+01
pressure[sink_14] 7.3608640364507224e+01
pressure[sink_15] 7.3985714520530323e+01
pressure[sink_16] 7.3846228982356749e+01
pressure[sink_17] 5.2361229132878741e+01
pressure[sink_18] 5.0052033486330160e+01
pressure[sink_19] 77.154545446568
pressure[sink_20] 5.7946292630451318e+01
pressure[sink_21] 2.9540659508019389e+00
pressure[sink_22] 4.6480524495286609e+01
pressure[sink_23] 8.0156877688818710e+01
pressure[sink_24] 3.1955706443666618e+00
pressure[sink_25] 7.3600388487220741e+01
pressure[sink_26] 61.715545302221
pressure[sink_27] 8.0866291377726043e+01
pressure[sink_28] 7.6843814408847535e+01
pressure[sink_29] 7.7139096682464711e+01
interdiction[source_1,sink_3] 0
interdiction[innode_1,sink_16] 0
interdiction[innode_6,sink_13] 0
interdiction[sink_13,sink_14] 0
interdiction[sink_14,sink_10] 0
interdiction[sink_25,sink_26] 0
interdiction[sink_26,sink_9] 0
interdiction[sink_9,sink_18] 0
interdiction[sink_26,sink_4] 0
interdiction[sink_4,sink_20] 0
interdiction[sink_18,sink_6] 0
interdiction[sink_25,innode_8] 0
interdiction[sink_6,sink_7] 0
interdiction[sink_6,sink_22] 0
interdiction[sink_7,sink_24] 0
interdiction[sink_22,sink_1] 0
interdiction[sink_24,sink_21] 0
interdiction[sink_21,sink_12] 0
interdiction[sink_7,sink_5] 0
interdiction[sink_5,sink_17] 0
interdiction[sink_17,sink_4] 1
interdiction[sink_17,sink_8] 0
interdiction[sink_3,sink_23] 0
interdiction[sink_8,sink_20] 0
interdiction[sink_25,sink_20] 0
interdiction[sink_25,sink_15] 0
interdiction[sink_15,sink_29] 1
interdiction[sink_29,sink_28] 0
interdiction[sink_29,sink_2] 0
interdiction[sink_2,sink_15] 0
interdiction[sink_29,innode_7] 0
interdiction[innode_4,sink_19] 0
interdiction[sink_19,innode_3] 0
interdiction[innode_4,innode_5] 0
interdiction[sink_27,innode_5] 0
interdiction[sink_27,sink_19] 1
interdiction[sink_10,sink_11] 0
interdiction[sink_10,innode_2] 0
interdiction[sink_10,innode_3] 0
interdiction[innode_6,sink_25] 0
interdiction[sink_11,innode_1] 0
interdiction[sink_19,innode_2] 0
interdiction[source_3,innode_4] 0
interdiction[source_2,innode_7] 0
interdiction[sink_3,innode_8] 0
WCcheckFlow[source_1,sink_3] 39
WCcheckFlow[innode_1,sink_16] 1
WCcheckFlow[innode_6,sink_13] 13
WCcheckFlow[sink_13,sink_14] 12
WCcheckFlow[sink_14,sink_10] 11
WCcheckFlow[sink_25,sink_26] 15
WCcheckFlow[sink_26,sink_9] 12
WCcheckFlow[sink_9,sink_18] 11
WCcheckFlow[sink_26,sink_4] 2
WCcheckFlow[sink_4,sink_20] 1
WCcheckFlow[sink_18,sink_6] 10
WCcheckFlow[sink_25,innode_8] -36
WCcheckFlow[sink_6,sink_7] 7
WCcheckFlow[sink_6,sink_22] 2
WCcheckFlow[sink_7,sink_24] 3
WCcheckFlow[sink_22,sink_1] 1
WCcheckFlow[sink_24,sink_21] 2
WCcheckFlow[sink_21,sink_12] 1
WCcheckFlow[sink_7,sink_5] 3
WCcheckFlow[sink_5,sink_17] 2
WCcheckFlow[sink_17,sink_4] 0
WCcheckFlow[sink_17,sink_8] 1
WCcheckFlow[sink_3,sink_23] 1
WCcheckFlow[sink_8,sink_20] 0
WCcheckFlow[sink_25,sink_20] 0
WCcheckFlow[sink_25,sink_15] 6
WCcheckFlow[sink_15,sink_29] 0
WCcheckFlow[sink_29,sink_28] 1
WCcheckFlow[sink_29,sink_2] -4
WCcheckFlow[sink_2,sink_15] -5
WCcheckFlow[sink_29,innode_7] 2
WCcheckFlow[innode_4,sink_19] -4
WCcheckFlow[sink_19,innode_3] -5
WCcheckFlow[innode_4,innode_5] 2
WCcheckFlow[sink_27,innode_5] -1
WCcheckFlow[sink_27,sink_19] 0
WCcheckFlow[sink_10,sink_11] 3
WCcheckFlow[sink_10,innode_2] 1
WCcheckFlow[sink_10,innode_3] 6
WCcheckFlow[innode_6,sink_25] -14
WCcheckFlow[sink_11,innode_1] 2
WCcheckFlow[sink_19,innode_2] 0
WCcheckFlow[source_3,innode_4] -1
WCcheckFlow[source_2,innode_7] -1
WCcheckFlow[sink_3,innode_8] 37
